7
2147483647 51 15 4 66 65 6 
51 2147483647 12 18 78 63 93 
15 12 2147483647 89 34 83 70 
4 18 89 2147483647 5 84 25 
66 78 34 5 2147483647 40 65 
65 63 83 84 40 2147483647 65 
6 93 70 25 65 65 2147483647 
